unsat
(define-fun SC ((s (_ BitVec 4)) (t (_ BitVec 4))) Bool (= t (bvurem t s)))
0.43user 0.00system 0:00.43elapsed 100%CPU (0avgtext+0avgdata 32836maxresident)k
0inputs+8outputs (0major+2827minor)pagefaults 0swaps
